************************************************************************
file with basedata            : md348_.bas
initial value random generator: 2017062059
************************************************************************
projects                      :  1
jobs (incl. supersource/sink ):  22
horizon                       :  155
RESOURCES
  - renewable                 :  2   R
  - nonrenewable              :  2   N
  - doubly constrained        :  0   D
************************************************************************
PROJECT INFORMATION:
pronr.  #jobs rel.date duedate tardcost  MPM-Time
    1     20      0       24       19       24
************************************************************************
PRECEDENCE RELATIONS:
jobnr.    #modes  #successors   successors
   1        1          3           2   3   4
   2        3          2           5  14
   3        3          1          18
   4        3          2           8  13
   5        3          3           6   7  17
   6        3          2          15  20
   7        3          3          10  12  13
   8        3          3           9  10  17
   9        3          3          11  12  16
  10        3          3          16  19  20
  11        3          3          14  15  21
  12        3          1          21
  13        3          2          15  16
  14        3          2          18  20
  15        3          1          18
  16        3          1          21
  17        3          1          19
  18        3          1          19
  19        3          1          22
  20        3          1          22
  21        3          1          22
  22        1          0        
************************************************************************
REQUESTS/DURATIONS:
jobnr. mode duration  R 1  R 2  N 1  N 2
------------------------------------------------------------------------
  1      1     0       0    0    0    0
  2      1     1      10    0    5    0
         2     3       6    0    0    6
         3     6       0    3    4    0
  3      1     5       0    7    0    3
         2    10       0    7    1    0
         3    10       0    6    0    2
  4      1     4       7    0    8    0
         2     6       0    6    7    0
         3     7       0    1    7    0
  5      1     3      10    0    3    0
         2     3       8    0    0    5
         3     3       0    1    0    5
  6      1     1       6    0    0    5
         2     5       0    4   10    0
         3     9       4    0    7    0
  7      1     2       0   10    0    6
         2     3       0    9    4    0
         3     6       0    9    0    5
  8      1     3       8    0    0    9
         2     8       0    9    0    7
         3     8       8    0    8    0
  9      1     3       6    0    7    0
         2     4       0    2    4    0
         3    10       6    0    0    6
 10      1     3       9    0    0    7
         2     4       3    0    0    6
         3     5       0    3    0    6
 11      1     7       4    0    0    6
         2     8       0    8    0    5
         3     9       0    4    8    0
 12      1     1       0    4    8    0
         2     4       0    3    0    5
         3     5       8    0    8    0
 13      1     4       0    6    4    0
         2     6       6    0    0    6
         3     8       0    4    4    0
 14      1     4       4    0    4    0
         2     6       2    0    0    6
         3     7       0    4    0    5
 15      1     2       0    7    0    6
         2     3       6    0    0    2
         3     9       4    0    8    0
 16      1     2       0    9    0    1
         2     4       3    0    0    1
         3    10       0    8    9    0
 17      1     5       0    7    0    5
         2     5       5    0   10    0
         3     8       3    0    0    6
 18      1     1       7    0    0    6
         2     1       5    0    5    0
         3     7       4    0    5    0
 19      1     2       0    9    6    0
         2     4       0    8    0    6
         3    10       6    0    0    6
 20      1     2       0    2    3    0
         2     7       8    0    0    6
         3    10       6    0    0    4
 21      1     3       0    3    0    5
         2     4       9    0    8    0
         3     8       3    0    4    0
 22      1     0       0    0    0    0
************************************************************************
RESOURCEAVAILABILITIES:
  R 1  R 2  N 1  N 2
   26   23  119  106
************************************************************************
MAXIMAL LAGS:
from  to  type  delay
    1   22   ES      0
    1    2   ES      0
    2   22   ES      0
    1    3   ES      0
    3   22   ES      0
    1    4   ES      0
    4   22   ES      0
    1    5   ES      0
    5   22   ES      0
    1    6   ES      0
    6   22   ES      0
    1    7   ES      0
    7   22   ES      0
    1    8   ES      0
    8   22   ES      0
    1    9   ES      0
    9   22   ES      0
    1   10   ES      0
   10   22   ES      0
    1   11   ES      0
   11   22   ES      0
    1   12   ES      0
   12   22   ES      0
    1   13   ES      0
   13   22   ES      0
    1   14   ES      0
   14   22   ES      0
    1   15   ES      0
   15   22   ES      0
    1   16   ES      0
   16   22   ES      0
    1   17   ES      0
   17   22   ES      0
    1   18   ES      0
   18   22   ES      0
    1   19   ES      0
   19   22   ES      0
    1   20   ES      0
   20   22   ES      0
    1   21   ES      0
   21   22   ES      0
    1   22   ES      0
    2    5   SS     -9
    2    5   SE     -9
    5    2   SE      0
    2    5   ES      0
    2    5   EE      0
    2   14   SS     -9
    2   14   SE     -8
    2   14   ES     -7
    2   14   EE    -11
    3   18   SS     -9
    3   18   SE      7
    3   18   ES     11
    3   18   EE    -11
    4    8   SS      2
    4    8   SE     -8
    4    8   ES     11
    4    8   EE     -2
    4   13   SS      9
    4   13   SE     11
    4   13   ES      4
    4   13   EE     12
    5    6   SS      2
    5    6   SE     -5
    5    6   ES     -6
    5    6   EE      7
    5    7   SS     11
    5    7   SE     11
    5    7   ES     -6
    5    7   EE    -11
    5   17   SS     -3
    5   17   SE      6
    5   17   ES     -6
    5   17   EE      1
    6   15   SS      0
    6   15   SE     -2
    6   15   ES     -6
    6   15   EE      5
    6   20   SS    -12
    6   20   SE      9
    6   20   ES     -7
    6   20   EE      2
    7   10   SS      8
    7   10   SE      9
    7   10   ES     -3
    7   10   EE     12
    7   12   SS      4
    7   12   SE     -9
    7   12   ES     -8
    7   12   EE     12
    7   13   SS     -3
    7   13   SE     -7
    7   13   ES     -9
    7   13   EE    -10
    8    9   SS     -3
    8    9   SE    -12
    8    9   ES      5
    8    9   EE      9
    8   10   SS      0
    8   10   SE      8
    8   10   ES      4
    8   10   EE     -8
    8   17   SS     -2
    8   17   SE    -12
    8   17   ES      6
    8   17   EE      9
    9   11   SS     -2
    9   11   SE     -8
    9   11   ES     -8
    9   11   EE      7
    9   12   SS     -3
    9   12   SE      0
    9   12   ES     -8
    9   12   EE    -12
    9   16   SS      6
    9   16   SE     -6
    9   16   ES     10
    9   16   EE     -1
   10   16   SS     -1
   10   16   SE     11
   10   16   ES      0
   10   16   EE    -10
   10   19   SS     11
   10   19   SE     11
   10   19   ES      8
   10   19   EE    -12
   10   20   SS     -6
   10   20   SE     10
   10   20   ES      9
   10   20   EE      6
   11   14   SS      7
   11   14   SE     -1
   11   14   ES     -8
   11   14   EE     12
   11   15   SS     10
   11   15   SE      6
   11   15   ES      3
   11   15   EE    -12
   11   21   SS     12
   11   21   SE     -9
   11   21   ES     -5
   11   21   EE      2
   12   21   SS     -9
   12   21   SE     -8
   12   21   ES     -4
   12   21   EE     -6
   13   15   SS      1
   13   15   SE     -1
   13   15   ES      5
   13   15   EE     -2
   13   16   SS      5
   13   16   SE     -1
   13   16   ES      0
   13   16   EE     -3
   14   18   SS     12
   14   18   SE     -8
   14   18   ES     -6
   14   18   EE    -12
   14   20   SS     -4
   14   20   SE    -10
   14   20   ES     11
   14   20   EE     12
   15   18   SS     -8
   15   18   SE    -12
   15   18   ES     -8
   15   18   EE      3
   16   21   SS    -11
   16   21   SE      1
   16   21   ES     -9
   16   21   EE     -1
   17   19   SS      7
   17   19   SE     -7
   17   19   ES      3
   17   19   EE     -5
   18   19   SS      5
   18   19   SE      3
   18   19   ES     -4
   18   19   EE    -11
************************************************************************
